(benchmark gametime
:status unknown
:logic QF_AUFBV
:extrafuns ((gtAGG__rtDWork  BitVec[32]))
:extrafuns ((gtINDEX70  BitVec[32]))
:extrafuns ((gtINDEX69  BitVec[32]))
:extrafuns ((gtINDEX68  BitVec[32]))
:extrafuns ((gtINDEX67  BitVec[32]))
:extrafuns ((gtINDEX66  BitVec[32]))
:extrafuns ((gtINDEX65  BitVec[32]))
:extrafuns ((gtINDEX64  BitVec[32]))
:extrafuns ((gtINDEX62  BitVec[32]))
:extrafuns ((gtFIELD__bitsForTID0__gtAGG____anonstruct_D_Work_4  Array[32:32]))
:extrafuns ((gtINDEX63  BitVec[32]))
:extrafuns ((gtINDEX60  BitVec[32]))
:extrafuns ((gtINDEX61  BitVec[32]))
:extrafuns ((gtINDEX58  BitVec[32]))
:extrafuns ((gtINDEX59  BitVec[32]))
:extrafuns ((gtINDEX56  BitVec[32]))
:extrafuns ((gtINDEX57  BitVec[32]))
:extrafuns ((gtINDEX54  BitVec[32]))
:extrafuns ((gtINDEX55  BitVec[32]))
:extrafuns ((gtINDEX52  BitVec[32]))
:extrafuns ((gtINDEX53  BitVec[32]))
:extrafuns ((gtINDEX51  BitVec[32]))
:extrafuns ((gtINDEX50  BitVec[32]))
:extrafuns ((gtINDEX49  BitVec[32]))
:extrafuns ((gtINDEX48  BitVec[32]))
:extrafuns ((gtINDEX47  BitVec[32]))
:extrafuns ((gtINDEX45  BitVec[32]))
:extrafuns ((gtINDEX46  BitVec[32]))
:extrafuns ((gtINDEX43  BitVec[32]))
:extrafuns ((gtINDEX44  BitVec[32]))
:extrafuns ((gtINDEX41  BitVec[32]))
:extrafuns ((gtINDEX42  BitVec[32]))
:extrafuns ((gtINDEX39  BitVec[32]))
:extrafuns ((gtINDEX40  BitVec[32]))
:extrafuns ((gtINDEX37  BitVec[32]))
:extrafuns ((gtINDEX38  BitVec[32]))
:extrafuns ((gtINDEX35  BitVec[32]))
:extrafuns ((gtINDEX36  BitVec[32]))
:extrafuns ((gtINDEX33  BitVec[32]))
:extrafuns ((gtINDEX34  BitVec[32]))
:extrafuns ((gtINDEX31  BitVec[32]))
:extrafuns ((gtINDEX32  BitVec[32]))
:extrafuns ((gtINDEX30  BitVec[32]))
:extrafuns ((gtINDEX28  BitVec[32]))
:extrafuns ((gtINDEX29  BitVec[32]))
:extrafuns ((gtINDEX27  BitVec[32]))
:extrafuns ((gtINDEX26  BitVec[32]))
:extrafuns ((gtINDEX25  BitVec[32]))
:extrafuns ((gtINDEX24  BitVec[32]))
:extrafuns ((gtINDEX23  BitVec[32]))
:extrafuns ((gtINDEX22  BitVec[32]))
:extrafuns ((gtINDEX21  BitVec[32]))
:extrafuns ((gtINDEX19  BitVec[32]))
:extrafuns ((gtINDEX20  BitVec[32]))
:extrafuns ((gtINDEX17  BitVec[32]))
:extrafuns ((gtINDEX18  BitVec[32]))
:extrafuns ((gtINDEX16  BitVec[32]))
:extrafuns ((gtINDEX15  BitVec[32]))
:extrafuns ((gtINDEX14  BitVec[32]))
:extrafuns ((gtINDEX12  BitVec[32]))
:extrafuns ((gtINDEX13  BitVec[32]))
:extrafuns ((gtINDEX11  BitVec[32]))
:extrafuns ((gtINDEX10  BitVec[32]))
:extrafuns ((gtINDEX8  BitVec[32]))
:extrafuns ((gtINDEX9  BitVec[32]))
:extrafuns ((gtINDEX7  BitVec[32]))
:extrafuns ((gtINDEX6  BitVec[32]))
:extrafuns ((gtINDEX4  BitVec[32]))
:extrafuns ((gtINDEX5  BitVec[32]))
:extrafuns ((gtINDEX2  BitVec[32]))
:extrafuns ((gtINDEX3  BitVec[32]))
:extrafuns ((gtINDEX0  BitVec[32]))
:extrafuns ((gtINDEX1  BitVec[32]))
:extrafuns ((gtFIELD__sh_rst__gtAGG____anonstruct_D_Work_4  Array[32:32]))
:extrafuns ((gtFIELD__sent__gtAGG____anonstruct_D_Work_4  Array[32:32]))
:extrafuns ((gtFIELD__is_Eng__gtAGG____anonstruct_bitsForTID0_5  Array[32:1]))
:extrafuns ((gtFIELD__is_active_Eng__gtAGG____anonstruct_bitsForTID0_5  Array[32:1]))
:extrafuns ((gtFIELD__is_PURI__gtAGG____anonstruct_bitsForTID0_5  Array[32:2]))
:extrafuns ((gtFIELD__is_PURI__gtAGG____anonstruct_bitsForTID0_5_1_  Array[32:2]))
:extrafuns ((gtFIELD__is_active_PURI__gtAGG____anonstruct_bitsForTID0_5  Array[32:1]))
:extrafuns ((gtFIELD__VRPd__gtAGG____anonstruct_D_Work_4  Array[32:32]))
:extrafuns ((gtFIELD__n_t_a1__gtAGG____anonstruct_D_Work_4  Array[32:32]))
:extrafuns ((gtFIELD__temporalCounter_i4__gtAGG____anonstruct_D_Work_4  Array[32:32]))
:extrafuns ((gtFIELD__comm__gtAGG____anonstruct_D_Work_4  Array[32:32]))
:extrafuns ((gtFIELD__is_PVRP__gtAGG____anonstruct_bitsForTID0_5  Array[32:2]))
:extrafuns ((gtFIELD__is_active_PVRP__gtAGG____anonstruct_bitsForTID0_5  Array[32:1]))
:extrafuns ((gtFIELD__is_PPVARP__gtAGG____anonstruct_bitsForTID0_5  Array[32:2]))
:extrafuns ((gtFIELD__is_PPVARP__gtAGG____anonstruct_bitsForTID0_5_1_  Array[32:2]))
:extrafuns ((gtFIELD__is_active_PPVARP__gtAGG____anonstruct_bitsForTID0_5  Array[32:1]))
:extrafuns ((gtFIELD__temporalCounter_i2__gtAGG____anonstruct_D_Work_4  Array[32:32]))
:extrafuns ((gtFIELD__temporalCounter_i2__gtAGG____anonstruct_D_Work_4_1_  Array[32:32]))
:extrafuns ((gtFIELD__is_PLRI__gtAGG____anonstruct_bitsForTID0_5  Array[32:2]))
:extrafuns ((gtFIELD__is_PLRI__gtAGG____anonstruct_bitsForTID0_5_1_  Array[32:2]))
:extrafuns ((gtFIELD__n_t_n__gtAGG____anonstruct_D_Work_4  Array[32:32]))
:extrafuns ((gtFIELD__n_t_n__gtAGG____anonstruct_D_Work_4_1_  Array[32:32]))
:extrafuns ((sfEvent_  BitVec[32]))
:extrafuns ((gtFIELD__AVId__gtAGG____anonstruct_D_Work_4  Array[32:32]))
:extrafuns ((gtFIELD__LRId__gtAGG____anonstruct_D_Work_4  Array[32:32]))
:extrafuns ((gtFIELD__is_active_PLRI__gtAGG____anonstruct_bitsForTID0_5  Array[32:1]))
:extrafuns ((gtFIELD__n_t__gtAGG____anonstruct_D_Work_4  Array[32:32]))
:extrafuns ((gtFIELD__temporalCounter_i1__gtAGG____anonstruct_D_Work_4  Array[32:32]))
:extrafuns ((gtFIELD__URIex__gtAGG____anonstruct_bitsForTID0_5  Array[32:1]))
:extrafuns ((gtFIELD__is_PAVI__gtAGG____anonstruct_bitsForTID0_5  Array[32:3]))
:extrafuns ((gtFIELD__is_active_PAVI__gtAGG____anonstruct_bitsForTID0_5  Array[32:1]))
:extrapreds ((constraint115 ))
:extrapreds ((constraint114 ))
:extrapreds ((constraint113 ))
:extrapreds ((constraint112 ))
:extrapreds ((constraint111 ))
:extrapreds ((constraint110 ))
:extrapreds ((constraint109 ))
:extrapreds ((constraint108 ))
:extrapreds ((constraint107 ))
:extrapreds ((constraint106 ))
:extrapreds ((constraint105 ))
:extrapreds ((constraint104 ))
:extrapreds ((constraint103 ))
:extrapreds ((constraint102 ))
:extrapreds ((constraint101 ))
:extrapreds ((constraint100 ))
:extrapreds ((constraint99 ))
:extrapreds ((constraint98 ))
:extrapreds ((constraint97 ))
:extrapreds ((constraint96 ))
:extrapreds ((constraint95 ))
:extrapreds ((constraint94 ))
:extrapreds ((constraint93 ))
:extrapreds ((constraint92 ))
:extrapreds ((constraint91 ))
:extrapreds ((constraint90 ))
:extrapreds ((constraint89 ))
:extrapreds ((constraint88 ))
:extrapreds ((constraint87 ))
:extrapreds ((constraint86 ))
:extrapreds ((constraint85 ))
:extrapreds ((constraint84 ))
:extrapreds ((constraint83 ))
:extrapreds ((constraint82 ))
:extrapreds ((constraint81 ))
:extrapreds ((constraint80 ))
:extrapreds ((constraint79 ))
:extrapreds ((constraint78 ))
:extrapreds ((constraint77 ))
:extrapreds ((constraint76 ))
:extrapreds ((constraint75 ))
:extrapreds ((constraint74 ))
:extrapreds ((constraint73 ))
:extrapreds ((constraint72 ))
:extrapreds ((constraint71 ))
:extrapreds ((constraint70 ))
:extrapreds ((constraint69 ))
:extrapreds ((constraint68 ))
:extrapreds ((constraint67 ))
:extrapreds ((constraint66 ))
:extrapreds ((constraint65 ))
:extrapreds ((constraint64 ))
:extrapreds ((constraint63 ))
:extrapreds ((constraint62 ))
:extrapreds ((constraint61 ))
:extrapreds ((constraint60 ))
:extrapreds ((constraint59 ))
:extrapreds ((constraint58 ))
:extrapreds ((constraint57 ))
:extrapreds ((constraint56 ))
:extrapreds ((constraint55 ))
:extrapreds ((constraint54 ))
:extrapreds ((constraint53 ))
:extrapreds ((constraint52 ))
:extrapreds ((constraint51 ))
:extrapreds ((constraint50 ))
:extrapreds ((constraint49 ))
:extrapreds ((constraint48 ))
:extrapreds ((constraint47 ))
:extrapreds ((constraint46 ))
:extrapreds ((constraint45 ))
:extrapreds ((constraint44 ))
:extrapreds ((constraint43 ))
:extrapreds ((constraint42 ))
:extrapreds ((constraint41 ))
:extrapreds ((constraint40 ))
:extrapreds ((constraint39 ))
:extrapreds ((constraint38 ))
:extrapreds ((constraint37 ))
:extrapreds ((constraint36 ))
:extrapreds ((constraint35 ))
:extrapreds ((constraint34 ))
:extrapreds ((constraint33 ))
:extrapreds ((constraint32 ))
:extrapreds ((constraint31 ))
:extrapreds ((constraint30 ))
:extrapreds ((constraint29 ))
:extrapreds ((constraint28 ))
:extrapreds ((constraint27 ))
:extrapreds ((constraint26 ))
:extrapreds ((constraint25 ))
:extrapreds ((constraint24 ))
:extrapreds ((constraint23 ))
:extrapreds ((constraint22 ))
:extrapreds ((constraint21 ))
:extrapreds ((constraint20 ))
:extrapreds ((constraint19 ))
:extrapreds ((constraint18 ))
:extrapreds ((constraint17 ))
:extrapreds ((constraint16 ))
:extrapreds ((constraint15 ))
:extrapreds ((constraint14 ))
:extrapreds ((constraint13 ))
:extrapreds ((constraint12 ))
:extrapreds ((constraint11 ))
:extrapreds ((constraint10 ))
:extrapreds ((constraint9 ))
:extrapreds ((constraint8 ))
:extrapreds ((constraint7 ))
:extrapreds ((constraint6 ))
:extrapreds ((constraint5 ))
:extrapreds ((constraint4 ))
:extrapreds ((constraint3 ))
:extrapreds ((constraint2 ))
:extrapreds ((constraint1 ))
:extrapreds ((constraint0 ))
:formula
(flet ($x608 (and constraint0 constraint1 constraint2 constraint3 constraint4 constraint5 constraint6 constraint7 constraint8 constraint9 constraint10 constraint11 constraint12 constraint13 constraint14 constraint15 constraint16 constraint17 constraint18 constraint19 constraint20 constraint21 constraint22 constraint23 constraint24 constraint25 constraint26 constraint27 constraint28 constraint29 constraint30 constraint31 constraint32 constraint33 constraint34 constraint35 constraint36 constraint37 constraint38 constraint39 constraint40 constraint41 constraint42 constraint43 constraint44 constraint45 constraint46 constraint47 constraint48 constraint49 constraint50 constraint51 constraint52 constraint53 constraint54 constraint55 constraint56 constraint57 constraint58 constraint59 constraint60 constraint61 constraint62 constraint63 constraint64 constraint65 constraint66 constraint67 constraint68 constraint69 constraint70 constraint71 constraint72 constraint73 constraint74 constraint75 constraint76 constraint77 constraint78 constraint79 constraint80 constraint81 constraint82 constraint83 constraint84 constraint85 constraint86 constraint87 constraint88 constraint89 constraint90 constraint91 constraint92 constraint93 constraint94 constraint95 constraint96 constraint97 constraint98 constraint99 constraint100 constraint101 constraint102 constraint103 constraint104 constraint105 constraint106 constraint107 constraint108 constraint109 constraint110 constraint111 constraint112 constraint113 constraint114 constraint115))
(flet ($x367 (= gtINDEX63 (select gtFIELD__bitsForTID0__gtAGG____anonstruct_D_Work_4 gtINDEX62)))
(flet ($x363 (= gtINDEX61 (select gtFIELD__bitsForTID0__gtAGG____anonstruct_D_Work_4 gtINDEX60)))
(flet ($x359 (= gtINDEX59 (select gtFIELD__bitsForTID0__gtAGG____anonstruct_D_Work_4 gtINDEX58)))
(flet ($x355 (= gtINDEX57 (select gtFIELD__bitsForTID0__gtAGG____anonstruct_D_Work_4 gtINDEX56)))
(flet ($x351 (= gtINDEX55 (select gtFIELD__bitsForTID0__gtAGG____anonstruct_D_Work_4 gtINDEX54)))
(flet ($x347 (= gtINDEX53 (select gtFIELD__bitsForTID0__gtAGG____anonstruct_D_Work_4 gtINDEX52)))
(flet ($x338 (= gtINDEX46 (select gtFIELD__bitsForTID0__gtAGG____anonstruct_D_Work_4 gtINDEX45)))
(flet ($x334 (= gtINDEX44 (select gtFIELD__bitsForTID0__gtAGG____anonstruct_D_Work_4 gtINDEX43)))
(flet ($x330 (= gtINDEX42 (select gtFIELD__bitsForTID0__gtAGG____anonstruct_D_Work_4 gtINDEX41)))
(flet ($x326 (= gtINDEX40 (select gtFIELD__bitsForTID0__gtAGG____anonstruct_D_Work_4 gtINDEX39)))
(flet ($x322 (= gtINDEX38 (select gtFIELD__bitsForTID0__gtAGG____anonstruct_D_Work_4 gtINDEX37)))
(flet ($x318 (= gtINDEX36 (select gtFIELD__bitsForTID0__gtAGG____anonstruct_D_Work_4 gtINDEX35)))
(flet ($x314 (= gtINDEX34 (select gtFIELD__bitsForTID0__gtAGG____anonstruct_D_Work_4 gtINDEX33)))
(flet ($x310 (= gtINDEX32 (select gtFIELD__bitsForTID0__gtAGG____anonstruct_D_Work_4 gtINDEX31)))
(flet ($x305 (= gtINDEX29 (select gtFIELD__bitsForTID0__gtAGG____anonstruct_D_Work_4 gtINDEX28)))
(flet ($x294 (= gtINDEX20 (select gtFIELD__bitsForTID0__gtAGG____anonstruct_D_Work_4 gtINDEX19)))
(flet ($x290 (= gtINDEX18 (select gtFIELD__bitsForTID0__gtAGG____anonstruct_D_Work_4 gtINDEX17)))
(flet ($x283 (= gtINDEX13 (select gtFIELD__bitsForTID0__gtAGG____anonstruct_D_Work_4 gtINDEX12)))
(flet ($x277 (= gtINDEX9 (select gtFIELD__bitsForTID0__gtAGG____anonstruct_D_Work_4 gtINDEX8)))
(flet ($x271 (= gtINDEX5 (select gtFIELD__bitsForTID0__gtAGG____anonstruct_D_Work_4 gtINDEX4)))
(flet ($x267 (= gtINDEX3 (select gtFIELD__bitsForTID0__gtAGG____anonstruct_D_Work_4 gtINDEX2)))
(flet ($x263 (= gtINDEX1 (select gtFIELD__bitsForTID0__gtAGG____anonstruct_D_Work_4 gtINDEX0)))
(flet ($x257 (= (select gtFIELD__sh_rst__gtAGG____anonstruct_D_Work_4 gtINDEX70) bv1[32]))
(flet ($x253 (= (select gtFIELD__sent__gtAGG____anonstruct_D_Work_4 gtINDEX69) bv3[32]))
(flet ($x249 (= (select gtFIELD__sent__gtAGG____anonstruct_D_Work_4 gtINDEX68) bv2[32]))
(flet ($x245 (= (select gtFIELD__sent__gtAGG____anonstruct_D_Work_4 gtINDEX67) bv1[32]))
(flet ($x241 (= (select gtFIELD__sent__gtAGG____anonstruct_D_Work_4 gtINDEX66) (bvmul bv4294967295[32] bv1[32])))
(flet ($x236 (= (select gtFIELD__sent__gtAGG____anonstruct_D_Work_4 gtINDEX65) bv9[32]))
(flet ($x231 (= (select gtFIELD__sent__gtAGG____anonstruct_D_Work_4 gtINDEX64) bv4[32]))
(let (?x227 (zero_extend[31] (select gtFIELD__is_Eng__gtAGG____anonstruct_bitsForTID0_5 gtINDEX63)))
(let (?x221 (select gtFIELD__is_active_Eng__gtAGG____anonstruct_bitsForTID0_5 gtINDEX61))
(let (?x170 (extract[1:0] bv0[32]))
(let (?x218 (store gtFIELD__is_PURI__gtAGG____anonstruct_bitsForTID0_5 gtINDEX59 ?x170))
(flet ($x446 (iff constraint35 (= gtFIELD__is_PURI__gtAGG____anonstruct_bitsForTID0_5_1_ ?x218)))
(let (?x213 (select gtFIELD__is_PURI__gtAGG____anonstruct_bitsForTID0_5 gtINDEX57))
(let (?x208 (select gtFIELD__is_PURI__gtAGG____anonstruct_bitsForTID0_5 gtINDEX55))
(let (?x203 (select gtFIELD__is_active_PURI__gtAGG____anonstruct_bitsForTID0_5 gtINDEX53))
(let (?x199 (bvadd (select gtFIELD__n_t_a1__gtAGG____anonstruct_D_Work_4 gtINDEX50) (select gtFIELD__VRPd__gtAGG____anonstruct_D_Work_4 gtINDEX51)))
(let (?x194 (select gtFIELD__temporalCounter_i4__gtAGG____anonstruct_D_Work_4 gtINDEX49))
(flet ($x192 (= (select gtFIELD__comm__gtAGG____anonstruct_D_Work_4 gtINDEX48) bv0[32]))
(flet ($x189 (= (select gtFIELD__sent__gtAGG____anonstruct_D_Work_4 gtINDEX47) bv0[32]))
(let (?x184 (select gtFIELD__is_PVRP__gtAGG____anonstruct_bitsForTID0_5 gtINDEX46))
(let (?x179 (select gtFIELD__is_PVRP__gtAGG____anonstruct_bitsForTID0_5 gtINDEX44))
(let (?x174 (select gtFIELD__is_active_PVRP__gtAGG____anonstruct_bitsForTID0_5 gtINDEX42))
(let (?x171 (store gtFIELD__is_PPVARP__gtAGG____anonstruct_bitsForTID0_5 gtINDEX40 ?x170))
(flet ($x426 (iff constraint25 (= gtFIELD__is_PPVARP__gtAGG____anonstruct_bitsForTID0_5_1_ ?x171)))
(let (?x164 (select gtFIELD__is_PPVARP__gtAGG____anonstruct_bitsForTID0_5 gtINDEX38))
(let (?x159 (select gtFIELD__is_PPVARP__gtAGG____anonstruct_bitsForTID0_5 gtINDEX36))
(let (?x154 (select gtFIELD__is_PPVARP__gtAGG____anonstruct_bitsForTID0_5 gtINDEX34))
(let (?x149 (select gtFIELD__is_active_PPVARP__gtAGG____anonstruct_bitsForTID0_5 gtINDEX32))
(let (?x146 (store gtFIELD__temporalCounter_i2__gtAGG____anonstruct_D_Work_4 gtINDEX30 bv0[32]))
(flet ($x416 (iff constraint20 (= gtFIELD__temporalCounter_i2__gtAGG____anonstruct_D_Work_4_1_ ?x146)))
(let (?x143 (store gtFIELD__is_PLRI__gtAGG____anonstruct_bitsForTID0_5 gtINDEX29 (extract[1:0] bv1[32])))
(flet ($x414 (iff constraint19 (= gtFIELD__is_PLRI__gtAGG____anonstruct_bitsForTID0_5_1_ ?x143)))
(flet ($x140 (= gtFIELD__n_t_n__gtAGG____anonstruct_D_Work_4_1_ (store gtFIELD__n_t_n__gtAGG____anonstruct_D_Work_4 gtINDEX27 bv0[32])))
(let (?x132 (bvmul bv4294967295[32] (select gtFIELD__AVId__gtAGG____anonstruct_D_Work_4 gtINDEX26)))
(let (?x128 (bvadd (select gtFIELD__n_t_n__gtAGG____anonstruct_D_Work_4 gtINDEX24) (select gtFIELD__LRId__gtAGG____anonstruct_D_Work_4 gtINDEX25)))
(let (?x123 (select gtFIELD__temporalCounter_i2__gtAGG____anonstruct_D_Work_4 gtINDEX23))
(flet ($x121 (= (select gtFIELD__comm__gtAGG____anonstruct_D_Work_4 gtINDEX22) bv0[32]))
(flet ($x118 (= (select gtFIELD__sent__gtAGG____anonstruct_D_Work_4 gtINDEX21) bv0[32]))
(let (?x113 (select gtFIELD__is_PLRI__gtAGG____anonstruct_bitsForTID0_5 gtINDEX20))
(let (?x108 (select gtFIELD__is_active_PLRI__gtAGG____anonstruct_bitsForTID0_5 gtINDEX18))
(let (?x101 (bvadd (select gtFIELD__n_t__gtAGG____anonstruct_D_Work_4 gtINDEX15) (select gtFIELD__AVId__gtAGG____anonstruct_D_Work_4 gtINDEX16)))
(let (?x96 (select gtFIELD__temporalCounter_i1__gtAGG____anonstruct_D_Work_4 gtINDEX14))
(let (?x93 (zero_extend[31] (select gtFIELD__URIex__gtAGG____anonstruct_bitsForTID0_5 gtINDEX13)))
(flet ($x90 (= (select gtFIELD__comm__gtAGG____anonstruct_D_Work_4 gtINDEX11) bv0[32]))
(flet ($x87 (= (select gtFIELD__sent__gtAGG____anonstruct_D_Work_4 gtINDEX10) bv0[32]))
(let (?x82 (zero_extend[31] (select gtFIELD__URIex__gtAGG____anonstruct_bitsForTID0_5 gtINDEX9)))
(flet ($x79 (= (select gtFIELD__comm__gtAGG____anonstruct_D_Work_4 gtINDEX7) bv0[32]))
(flet ($x76 (= (select gtFIELD__sent__gtAGG____anonstruct_D_Work_4 gtINDEX6) bv0[32]))
(let (?x71 (zero_extend[29] (select gtFIELD__is_PAVI__gtAGG____anonstruct_bitsForTID0_5 gtINDEX5)))
(let (?x65 (zero_extend[29] (select gtFIELD__is_PAVI__gtAGG____anonstruct_bitsForTID0_5 gtINDEX3)))
(let (?x58 (select gtFIELD__is_active_PAVI__gtAGG____anonstruct_bitsForTID0_5 gtINDEX1))
(flet ($x607 (and (iff constraint0 (not (= sfEvent_ bv8[32]))) (iff constraint1 (not (= (zero_extend[31] ?x58) bv0[32]))) (iff constraint2 (not (= ?x65 bv1[32]))) (iff constraint3 (= ?x71 bv2[32])) (iff constraint4 $x76) (iff constraint5 $x79) (iff constraint6 (not (= ?x82 bv0[32]))) (iff constraint7 $x87) (iff constraint8 $x90) (iff constraint9 (= ?x93 bv1[32])) (iff constraint10 (not (= ?x96 ?x101))) (iff constraint11 (not (= sfEvent_ bv5[32]))) (iff constraint12 (not (= (zero_extend[31] ?x108) bv0[32]))) (iff constraint13 (= (zero_extend[30] ?x113) bv1[32])) (iff constraint14 $x118) (iff constraint15 $x121) (iff constraint16 (not (= ?x123 (bvadd ?x128 ?x132)))) (iff constraint17 (= sfEvent_ bv4[32])) (iff constraint18 $x140) $x414 $x416 (iff constraint21 (not (= (zero_extend[31] ?x149) bv0[32]))) (iff constraint22 (not (= (zero_extend[30] ?x154) bv1[32]))) (iff constraint23 (not (= (zero_extend[30] ?x159) bv2[32]))) (iff constraint24 (not (= (zero_extend[30] ?x164) bv3[32]))) $x426 (iff constraint26 (not (= (zero_extend[31] ?x174) bv0[32]))) (iff constraint27 (not (= (zero_extend[30] ?x179) bv1[32]))) (iff constraint28 (= (zero_extend[30] ?x184) bv2[32])) (iff constraint29 $x189) (iff constraint30 $x192) (iff constraint31 (not (= ?x194 ?x199))) (iff constraint32 (not (= (zero_extend[31] ?x203) bv0[32]))) (iff constraint33 (not (= (zero_extend[30] ?x208) bv1[32]))) (iff constraint34 (not (= (zero_extend[30] ?x213) bv2[32]))) $x446 (iff constraint36 (not (= (zero_extend[31] ?x221) bv0[32]))) (iff constraint37 (= ?x227 bv1[32])) (iff constraint38 (not $x231)) (iff constraint39 (not $x236)) (iff constraint40 (not $x241)) (iff constraint41 (not $x245)) (iff constraint42 (not $x249)) (iff constraint43 (not $x253)) (iff constraint44 (not $x257)) (iff constraint45 (= gtINDEX0 gtAGG__rtDWork)) (iff constraint46 $x263) (iff constraint47 (= gtINDEX2 gtAGG__rtDWork)) (iff constraint48 $x267) (iff constraint49 (= gtINDEX4 gtAGG__rtDWork)) (iff constraint50 $x271) (iff constraint51 (= gtINDEX6 gtAGG__rtDWork)) (iff constraint52 (= gtINDEX7 gtAGG__rtDWork)) (iff constraint53 (= gtINDEX8 gtAGG__rtDWork)) (iff constraint54 $x277) (iff constraint55 (= gtINDEX10 gtAGG__rtDWork)) (iff constraint56 (= gtINDEX11 gtAGG__rtDWork)) (iff constraint57 (= gtINDEX12 gtAGG__rtDWork)) (iff constraint58 $x283) (iff constraint59 (= gtINDEX14 gtAGG__rtDWork)) (iff constraint60 (= gtINDEX15 gtAGG__rtDWork)) (iff constraint61 (= gtINDEX16 gtAGG__rtDWork)) (iff constraint62 (= gtINDEX17 gtAGG__rtDWork)) (iff constraint63 $x290) (iff constraint64 (= gtINDEX19 gtAGG__rtDWork)) (iff constraint65 $x294) (iff constraint66 (= gtINDEX21 gtAGG__rtDWork)) (iff constraint67 (= gtINDEX22 gtAGG__rtDWork)) (iff constraint68 (= gtINDEX23 gtAGG__rtDWork)) (iff constraint69 (= gtINDEX24 gtAGG__rtDWork)) (iff constraint70 (= gtINDEX25 gtAGG__rtDWork)) (iff constraint71 (= gtINDEX26 gtAGG__rtDWork)) (iff constraint72 (= gtINDEX27 gtAGG__rtDWork)) (iff constraint73 (= gtINDEX28 gtAGG__rtDWork)) (iff constraint74 $x305) (iff constraint75 (= gtINDEX30 gtAGG__rtDWork)) (iff constraint76 (= gtINDEX31 gtAGG__rtDWork)) (iff constraint77 $x310) (iff constraint78 (= gtINDEX33 gtAGG__rtDWork)) (iff constraint79 $x314) (iff constraint80 (= gtINDEX35 gtAGG__rtDWork)) (iff constraint81 $x318) (iff constraint82 (= gtINDEX37 gtAGG__rtDWork)) (iff constraint83 $x322) (iff constraint84 (= gtINDEX39 gtAGG__rtDWork)) (iff constraint85 $x326) (iff constraint86 (= gtINDEX41 gtAGG__rtDWork)) (iff constraint87 $x330) (iff constraint88 (= gtINDEX43 gtAGG__rtDWork)) (iff constraint89 $x334) (iff constraint90 (= gtINDEX45 gtAGG__rtDWork)) (iff constraint91 $x338) (iff constraint92 (= gtINDEX47 gtAGG__rtDWork)) (iff constraint93 (= gtINDEX48 gtAGG__rtDWork)) (iff constraint94 (= gtINDEX49 gtAGG__rtDWork)) (iff constraint95 (= gtINDEX50 gtAGG__rtDWork)) (iff constraint96 (= gtINDEX51 gtAGG__rtDWork)) (iff constraint97 (= gtINDEX52 gtAGG__rtDWork)) (iff constraint98 $x347) (iff constraint99 (= gtINDEX54 gtAGG__rtDWork)) (iff constraint100 $x351) (iff constraint101 (= gtINDEX56 gtAGG__rtDWork)) (iff constraint102 $x355) (iff constraint103 (= gtINDEX58 gtAGG__rtDWork)) (iff constraint104 $x359) (iff constraint105 (= gtINDEX60 gtAGG__rtDWork)) (iff constraint106 $x363) (iff constraint107 (= gtINDEX62 gtAGG__rtDWork)) (iff constraint108 $x367) (iff constraint109 (= gtINDEX64 gtAGG__rtDWork)) (iff constraint110 (= gtINDEX65 gtAGG__rtDWork)) (iff constraint111 (= gtINDEX66 gtAGG__rtDWork)) (iff constraint112 (= gtINDEX67 gtAGG__rtDWork)) (iff constraint113 (= gtINDEX68 gtAGG__rtDWork)) (iff constraint114 (= gtINDEX69 gtAGG__rtDWork)) (iff constraint115 (= gtINDEX70 gtAGG__rtDWork))))
(and $x607 $x608))))))))))))))))))))))))))))))))))))))))))))))))))))))))))))))))))))))))))))
)
